%%% static parameters %%%
timespan = 1;
initial_fruit_bushes = [40];
initial_foragers = [40];
ticks_to_flee = [100];
bush_growth_chance = [10];
rate_of_mutation = [5.0];
%%% dynamic parameters %%%
mean_strength_th = 0.17183797298489;
mean_strength_w = 12;
mean_speed_th = 0.9714916353115909;
mean_speed_w = 34;
mean_intelligence_th = 0.07373547285803572;
mean_intelligence_w = 79;
murder_rate_th = 0.8369022691706794;
murder_rate_w = 39;
age_death_rate_th = 0.3582151719267975;
age_death_rate_w = 23;
starvation_rate_th = 0.42554386559756274;
starvation_rate_w = 10;
mean_reactive_aggression_th = 0.028603976116889474;
mean_reactive_aggression_w = 88;
mean_proactive_aggression_th = 0.4538056089000786;
mean_proactive_aggression_w = 85;
average_population_th = 267;
average_population_w = 269;
